experiment/data/hgs-res/Vrp-Set-P-n55/Vrp-Set-P-n55-hgs/0.hgs1.tour
Route #1: 17 44 3 16 33 6
Route #2: 51 1 43 41 42 22 28
Route #3: 2 21 47 48 30
Route #4: 15 20 37 36 5 29 45
Route #5: 4
Route #6: 8 19 54 13 27 52 34
Route #7: 7 53 14 35 46
Route #8: 31 10 38 11
Route #9: 40 9 39 12 26
Route #10: 23 49 24 18 50 25 32
Cost 696.827
